(declare-fun var0 () String)
(assert (RegexIn var0 (RegexConcat (RegexUnion (RegexUnion (Str2Reg "aaa") (Str2Reg "bb")) (RegexStar (Str2Reg "c"))) (RegexConcat (RegexStar (RegexStar (Str2Reg "99"))) (RegexConcat (RegexUnion (RegexPlus (Str2Reg "777")) (RegexStar (Str2Reg "88"))) (RegexConcat (RegexPlus (RegexStar (Str2Reg "666"))) (RegexConcat (RegexStar (RegexStar (Str2Reg "55"))) (RegexConcat (RegexStar (RegexPlus (Str2Reg "44"))) (RegexConcat (RegexUnion (RegexUnion (Str2Reg "11") (Str2Reg "2")) (RegexStar (Str2Reg "333"))) (RegexConcat (RegexUnion (RegexPlus (Str2Reg "~~")) (RegexPlus (Str2Reg "00"))) (RegexConcat (RegexPlus (RegexStar (Str2Reg "}"))) (RegexConcat (RegexStar (RegexStar (Str2Reg "||"))) (RegexConcat (RegexPlus (RegexPlus (Str2Reg "{"))) (RegexConcat (RegexPlus (RegexPlus (Str2Reg "``"))) (RegexConcat (RegexStar (RegexPlus (Str2Reg "__"))) (RegexConcat (RegexStar (RegexPlus (Str2Reg "^"))) (RegexConcat (RegexStar (RegexPlus (Str2Reg "]"))) (RegexConcat (RegexPlus (RegexUnion (Str2Reg "[[") (Str2Reg "\\\\"))) (RegexConcat (RegexPlus (RegexPlus (Str2Reg "@@@"))) (RegexConcat (RegexStar (RegexStar (Str2Reg "???"))) (RegexConcat (RegexUnion (RegexPlus (Str2Reg "==")) (RegexPlus (Str2Reg ">>>"))) (RegexConcat (RegexPlus (RegexPlus (Str2Reg "<<"))) (RegexConcat (RegexStar (RegexUnion (Str2Reg "::") (Str2Reg ";;"))) (RegexConcat (RegexStar (RegexPlus (Str2Reg "///"))) (RegexConcat (RegexUnion (RegexUnion (Str2Reg "+++") (Str2Reg ",")) (RegexUnion (Str2Reg "--") (Str2Reg ".."))) (RegexConcat (RegexPlus (RegexUnion (Str2Reg ")") (Str2Reg "***"))) (RegexConcat (RegexUnion (RegexStar (Str2Reg "&&")) (RegexUnion (Str2Reg "'''") (Str2Reg "((("))) (RegexConcat (RegexUnion (RegexUnion (Str2Reg "#") (Str2Reg "$")) (RegexPlus (Str2Reg "%%"))) (RegexConcat (RegexUnion (RegexPlus (Str2Reg "ZZZ")) (RegexUnion (Str2Reg "!") (Str2Reg "\""))) (RegexConcat (RegexStar (RegexUnion (Str2Reg "XX") (Str2Reg "YYY"))) (RegexConcat (RegexStar (RegexUnion (Str2Reg "V") (Str2Reg "W"))) (RegexConcat (RegexUnion (RegexUnion (Str2Reg "SS") (Str2Reg "TTT")) (RegexStar (Str2Reg "UUU"))) (RegexConcat (RegexStar (RegexStar (Str2Reg "RRR"))) (RegexConcat (RegexPlus (RegexStar (Str2Reg "QQQ"))) (RegexConcat (RegexPlus (RegexStar (Str2Reg "PPP"))) (RegexConcat (RegexStar (RegexUnion (Str2Reg "NNN") (Str2Reg "OOO"))) (RegexConcat (RegexPlus (RegexStar (Str2Reg "M"))) (RegexConcat (RegexUnion (RegexPlus (Str2Reg "K")) (RegexPlus (Str2Reg "L"))) (RegexConcat (RegexPlus (RegexPlus (Str2Reg "J"))) (RegexConcat (RegexStar (RegexPlus (Str2Reg "II"))) (RegexConcat (RegexStar (RegexPlus (Str2Reg "HH"))) (RegexConcat (RegexUnion (RegexStar (Str2Reg "F")) (RegexPlus (Str2Reg "GG"))) (RegexConcat (RegexPlus (RegexStar (Str2Reg "EEE"))) (RegexConcat (RegexStar (RegexUnion (Str2Reg "CCC") (Str2Reg "DDD"))) (RegexConcat (RegexUnion (RegexStar (Str2Reg "AA")) (RegexStar (Str2Reg "B"))) (RegexConcat (RegexPlus (RegexPlus (Str2Reg "zzz"))) (RegexConcat (RegexPlus (RegexStar (Str2Reg "y"))) (RegexConcat (RegexUnion (RegexPlus (Str2Reg "w")) (RegexPlus (Str2Reg "x"))) (RegexConcat (RegexPlus (RegexStar (Str2Reg "v"))) (RegexConcat (RegexStar (RegexStar (Str2Reg "u"))) (RegexConcat (RegexPlus (RegexStar (Str2Reg "tt"))) (RegexConcat (RegexPlus (RegexStar (Str2Reg "sss"))) (RegexConcat (RegexPlus (RegexUnion (Str2Reg "qq") (Str2Reg "rrr"))) (RegexConcat (RegexPlus (RegexStar (Str2Reg "ppp"))) (RegexConcat (RegexPlus (RegexUnion (Str2Reg "nn") (Str2Reg "ooo"))) (RegexConcat (RegexUnion (RegexStar (Str2Reg "ll")) (RegexPlus (Str2Reg "m"))) (RegexConcat (RegexStar (RegexStar (Str2Reg "k"))) (RegexConcat (RegexUnion (RegexPlus (Str2Reg "iii")) (RegexStar (Str2Reg "jjj"))) (RegexConcat (RegexStar (RegexUnion (Str2Reg "ggg") (Str2Reg "h"))) (RegexConcat (RegexPlus (RegexPlus (Str2Reg "fff"))) (RegexConcat (RegexUnion (RegexStar (Str2Reg "cc")) (RegexUnion (Str2Reg "ddd") (Str2Reg "ee"))) (RegexConcat (RegexStar (RegexUnion (Str2Reg "a") (Str2Reg "bb"))) (RegexConcat (RegexUnion (RegexStar (Str2Reg "888")) (RegexStar (Str2Reg "999"))) (RegexConcat (RegexStar (RegexPlus (Str2Reg "777"))) (RegexConcat (RegexPlus (RegexStar (Str2Reg "666"))) (RegexConcat (RegexPlus (RegexUnion (Str2Reg "4") (Str2Reg "5"))) (RegexConcat (RegexPlus (RegexStar (Str2Reg "33"))) (RegexUnion (RegexUnion (Str2Reg "00") (Str2Reg "111")) (RegexStar (Str2Reg "222"))))))))))))))))))))))))))))))))))))))))))))))))))))))))))))))))))))))
(assert (not (RegexIn var0 (RegexConcat (RegexPlus (RegexPlus (Str2Reg "ll"))) (RegexConcat (RegexUnion (RegexPlus (Str2Reg "jj")) (RegexPlus (Str2Reg "kk"))) (RegexConcat (RegexStar (RegexPlus (Str2Reg "ii"))) (RegexConcat (RegexPlus (RegexStar (Str2Reg "hh"))) (RegexConcat (RegexUnion (RegexUnion (Str2Reg "dd") (Str2Reg "ee")) (RegexUnion (Str2Reg "f") (Str2Reg "gg"))) (RegexConcat (RegexStar (RegexPlus (Str2Reg "c"))) (RegexConcat (RegexStar (RegexPlus (Str2Reg "bb"))) (RegexConcat (RegexPlus (RegexPlus (Str2Reg "aaa"))) (RegexConcat (RegexPlus (RegexStar (Str2Reg "999"))) (RegexConcat (RegexStar (RegexUnion (Str2Reg "7") (Str2Reg "8"))) (RegexConcat (RegexPlus (RegexStar (Str2Reg "666"))) (RegexConcat (RegexPlus (RegexPlus (Str2Reg "555"))) (RegexConcat (RegexPlus (RegexUnion (Str2Reg "33") (Str2Reg "4"))) (RegexConcat (RegexPlus (RegexStar (Str2Reg "222"))) (RegexConcat (RegexPlus (RegexUnion (Str2Reg "0") (Str2Reg "1"))) (RegexConcat (RegexPlus (RegexUnion (Str2Reg "}}") (Str2Reg "~~"))) (RegexConcat (RegexPlus (RegexUnion (Str2Reg "{{") (Str2Reg "||"))) (RegexConcat (RegexUnion (RegexUnion (Str2Reg "^^^") (Str2Reg "___")) (RegexPlus (Str2Reg "``"))) (RegexConcat (RegexStar (RegexUnion (Str2Reg "\\\\\\") (Str2Reg "]"))) (RegexConcat (RegexStar (RegexUnion (Str2Reg "@@") (Str2Reg "["))) (RegexConcat (RegexPlus (RegexStar (Str2Reg "?"))) (RegexConcat (RegexUnion (RegexPlus (Str2Reg "===")) (RegexPlus (Str2Reg ">"))) (RegexConcat (RegexUnion (RegexStar (Str2Reg "::")) (RegexUnion (Str2Reg ";;;") (Str2Reg "<"))) (RegexConcat (RegexStar (RegexUnion (Str2Reg ".") (Str2Reg "///"))) (RegexConcat (RegexStar (RegexUnion (Str2Reg ",") (Str2Reg "-"))) (RegexConcat (RegexStar (RegexPlus (Str2Reg "+++"))) (RegexConcat (RegexStar (RegexStar (Str2Reg "**"))) (RegexConcat (RegexPlus (RegexUnion (Str2Reg "(((") (Str2Reg ")))"))) (RegexConcat (RegexUnion (RegexUnion (Str2Reg "%%%") (Str2Reg "&&")) (RegexStar (Str2Reg "'''"))) (RegexConcat (RegexUnion (RegexPlus (Str2Reg "###")) (RegexPlus (Str2Reg "$$"))) (RegexConcat (RegexPlus (RegexStar (Str2Reg "\"\""))) (RegexConcat (RegexStar (RegexUnion (Str2Reg "Z") (Str2Reg "!!!"))) (RegexConcat (RegexUnion (RegexPlus (Str2Reg "XX")) (RegexPlus (Str2Reg "YYY"))) (RegexConcat (RegexUnion (RegexStar (Str2Reg "VV")) (RegexPlus (Str2Reg "W"))) (RegexConcat (RegexStar (RegexStar (Str2Reg "U"))) (RegexConcat (RegexUnion (RegexStar (Str2Reg "SS")) (RegexPlus (Str2Reg "T"))) (RegexConcat (RegexPlus (RegexStar (Str2Reg "R"))) (RegexConcat (RegexUnion (RegexStar (Str2Reg "OOO")) (RegexUnion (Str2Reg "PPP") (Str2Reg "QQQ"))) (RegexConcat (RegexStar (RegexUnion (Str2Reg "MMM") (Str2Reg "N"))) (RegexConcat (RegexUnion (RegexPlus (Str2Reg "JJJ")) (RegexUnion (Str2Reg "KK") (Str2Reg "LLL"))) (RegexConcat (RegexUnion (RegexUnion (Str2Reg "G") (Str2Reg "H")) (RegexStar (Str2Reg "I"))) (RegexConcat (RegexStar (RegexStar (Str2Reg "F"))) (RegexConcat (RegexStar (RegexStar (Str2Reg "E"))) (RegexConcat (RegexPlus (RegexPlus (Str2Reg "D"))) (RegexConcat (RegexUnion (RegexPlus (Str2Reg "BB")) (RegexStar (Str2Reg "CCC"))) (RegexConcat (RegexStar (RegexStar (Str2Reg "A"))) (RegexConcat (RegexPlus (RegexPlus (Str2Reg "zz"))) (RegexConcat (RegexPlus (RegexUnion (Str2Reg "xxx") (Str2Reg "yy"))) (RegexConcat (RegexUnion (RegexPlus (Str2Reg "vv")) (RegexPlus (Str2Reg "w"))) (RegexConcat (RegexUnion (RegexPlus (Str2Reg "ttt")) (RegexStar (Str2Reg "uu"))) (RegexConcat (RegexStar (RegexUnion (Str2Reg "rrr") (Str2Reg "s"))) (RegexConcat (RegexStar (RegexUnion (Str2Reg "pp") (Str2Reg "qqq"))) (RegexConcat (RegexStar (RegexPlus (Str2Reg "ooo"))) (RegexConcat (RegexPlus (RegexStar (Str2Reg "n"))) (RegexConcat (RegexUnion (RegexPlus (Str2Reg "kk")) (RegexUnion (Str2Reg "l") (Str2Reg "mm"))) (RegexConcat (RegexUnion (RegexUnion (Str2Reg "gg") (Str2Reg "hhh")) (RegexUnion (Str2Reg "ii") (Str2Reg "j"))) (RegexConcat (RegexPlus (RegexUnion (Str2Reg "ee") (Str2Reg "fff"))) (RegexConcat (RegexUnion (RegexPlus (Str2Reg "cc")) (RegexPlus (Str2Reg "d"))) (RegexConcat (RegexPlus (RegexPlus (Str2Reg "bb"))) (RegexConcat (RegexPlus (RegexPlus (Str2Reg "a"))) (RegexConcat (RegexUnion (RegexPlus (Str2Reg "888")) (RegexPlus (Str2Reg "99"))) (RegexConcat (RegexStar (RegexPlus (Str2Reg "77"))) (RegexConcat (RegexUnion (RegexPlus (Str2Reg "555")) (RegexPlus (Str2Reg "66"))) (RegexConcat (RegexStar (RegexPlus (Str2Reg "44"))) (RegexConcat (RegexPlus (RegexUnion (Str2Reg "22") (Str2Reg "333"))) (RegexStar (RegexUnion (Str2Reg "0") (Str2Reg "11")))))))))))))))))))))))))))))))))))))))))))))))))))))))))))))))))))))))
(check-sat)